! RI-MP2 6-311G(d) autoaux nofrozencore tightscf engrad 
%pal nprocs 1 end 
*xyz -1 1 
C   0.3244952245521441 -0.7416264964734884 -0.04452112135265506
C   1.6537516740272333 -0.03212759532996279 0.01805181461615582
H   2.328971905483995 -0.5471703163953402 0.7064067148207218
F   -0.590087830520371 1.4425334149989728 0.2745760449781692
Cl   0.6585723024244929 -2.5724742529509115 -0.36305243143608973
H   -0.3093018615054919 -0.4099169915826187 -0.8524150845824157
H   -0.2294428487554656 -0.6998278356647016 0.8817270888591974
H   1.42610086482583 0.9817632762883315 0.34572652021633327
H   2.1228320794676305 -0.011887612890280286 -0.9690870961194175
*
