! RI-MP2 6-311G(d) autoaux nofrozencore tightscf engrad 
%pal nprocs 1 end 
*xyz -1 1 
C   0.18057309797897103 -0.3326285038699812 0.019968450771976457
C   1.6416415981886674 0.022116256569549575 0.02620620236473066
H   2.2693687508143583 -0.573078636499736 0.6904242079303149
F   -0.49259735340083655 1.199942068343191 0.2399297769322928
Cl   0.7068005021889917 -2.7190590852595626 -0.3826941602660138
H   -0.3317504057741434 -0.4778045399320495 -0.9060280755572051
H   -0.25644300691820154 -0.7467742053391977 0.9058398938754371
H   1.5795574696085697 1.0484370447425375 0.3717388742824367
H   2.0887408573136215 -0.01188480875475073 -0.9679727203339697
*
