! RI-MP2 6-311G(d) autoaux nofrozencore tightscf engrad 
%pal nprocs 1 end 
*xyz -1 1 
C   0.26306285008047037 -0.5734128095596528 -0.017258052821529066
C   1.648633824282524 0.00234326873295998 0.02400868492482585
H   2.295584080287138 -0.5666517919074812 0.6935174266583659
F   -0.5408494777367476 1.312809515646528 0.25315353574797056
Cl   0.6876389438561246 -2.6224278673234163 -0.365768530302287
H   -0.33610881356729005 -0.44031623923167673 -0.8943585817097717
H   -0.26000269283930066 -0.7199713128677848 0.9071485632996256
H   1.5279684067100519 1.025967481530036 0.36656752241277696
H   2.0999643889270274 -0.009074655019511269 -0.9695981182099774
*
