! RI-MP2 6-311G(d) autoaux nofrozencore tightscf engrad 
%pal nprocs 1 end 
*xyz -1 1 
C   0.11037347714400159 -0.14343141328632578 0.0471983556672642
C   1.6155334504727374 0.07651726462019609 0.03303354482047814
H   2.1812255941870147 -0.5962376130896229 0.6770092966373616
F   -0.4939506458942996 1.1537178258503547 0.23508077115738546
Cl   0.7503188156441114 -2.91024227276923 -0.40832999572695833
H   -0.3014182182221977 -0.5105698085266994 -0.8854012518697407
H   -0.2346029196377345 -0.7532289010555551 0.876155554132571
H   1.7116496074187946 1.1013141340917239 0.387605207523543
H   2.0467623488875706 -0.008573625834841614 -0.9649390323419045
*
